p cnf 7230 15
-3406 -3412 -3418 3791 -3795 0
-3791 3795 0
3796 -3799 0
3406 -3791 0
-3400 3799 0
-3796 3797 0
3400 -3797 0
3798 -3799 0
-3793 3795 0
3794 -3795 0
3792 -3794 0
-3398 3793 0
3398 -3792 0
-3790 3791 0
3790 -3791 0
